20
1 0 1
2 0 1
2 1 2
3 0 2
3 1 3
3 2 1
4 0 2
4 1 3
4 2 2
4 3 1
5 0 2
5 1 1
5 2 1
5 3 1
5 4 3
6 0 3
6 1 2
6 2 3
6 3 4
6 4 3
6 5 3
7 0 1
7 1 2
7 2 2
7 3 3
7 4 4
7 5 2
7 6 2
8 0 4
8 1 4
8 2 4
8 3 3
8 4 4
8 5 3
8 6 4
8 7 1
9 0 4
9 1 3
9 2 4
9 3 3
9 4 1
9 5 2
9 6 4
9 7 1
9 8 2
10 0 2
10 1 4
10 2 3
10 3 4
10 4 2
10 5 1
10 6 2
10 7 4
10 8 1
10 9 2
11 0 3
11 1 1
11 2 4
11 3 1
11 4 3
11 5 4
11 6 4
11 7 3
11 8 3
11 9 3
11 10 2
12 0 1
12 1 4
12 2 2
12 3 1
12 4 2
12 5 1
12 6 2
12 7 4
12 8 3
12 9 4
12 10 4
12 11 3
13 0 1
13 1 3
13 2 2
13 3 2
13 4 2
13 5 3
13 6 2
13 7 1
13 8 1
13 9 4
13 10 4
13 11 4
13 12 2
14 0 2
14 1 2
14 2 1
14 3 2
14 4 4
14 5 4
14 6 2
14 7 3
14 8 1
14 9 2
14 10 4
14 11 2
14 12 4
14 13 4
15 0 3
15 1 1
15 2 2
15 3 3
15 4 1
15 5 2
15 6 4
15 7 4
15 8 2
15 9 3
15 10 3
15 11 3
15 12 4
15 13 1
15 14 2
16 0 3
16 1 1
16 2 2
16 3 4
16 4 1
16 5 4
16 6 2
16 7 3
16 8 4
16 9 1
16 10 2
16 11 3
16 12 4
16 13 2
16 14 2
16 15 2
17 0 2
17 1 2
17 2 3
17 3 4
17 4 2
17 5 2
17 6 4
17 7 1
17 8 1
17 9 4
17 10 4
17 11 2
17 12 4
17 13 1
17 14 1
17 15 1
17 16 2
18 0 2
18 1 3
18 2 3
18 3 1
18 4 3
18 5 1
18 6 2
18 7 4
18 8 3
18 9 3
18 10 4
18 11 1
18 12 1
18 13 3
18 14 1
18 15 1
18 16 1
18 17 1
19 0 1
19 1 2
19 2 2
19 3 3
19 4 2
19 5 3
19 6 4
19 7 4
19 8 1
19 9 1
19 10 3
19 11 2
19 12 1
19 13 3
19 14 2
19 15 4
19 16 3
19 17 4
19 18 2
